60
529
10
95
72
94
42
79
12
96
79
71
40
0 5
0 8
0 11
0 13
0 15
0 20
0 22
0 23
0 27
0 28
0 33
0 34
0 36
0 37
0 39
0 44
0 46
0 51
0 54
0 57
0 58
1 2
1 5
1 8
1 10
1 15
1 18
1 20
1 25
1 27
1 29
1 30
1 31
1 36
1 37
1 39
1 40
1 42
1 44
1 52
2 6
2 14
2 15
2 16
2 19
2 20
2 21
2 27
2 28
2 33
2 38
2 39
2 41
2 46
2 52
2 54
2 55
3 6
3 8
3 12
3 18
3 25
3 31
3 33
3 37
3 39
3 40
3 44
3 48
3 52
3 56
3 58
4 6
4 7
4 17
4 20
4 24
4 26
4 28
4 31
4 35
4 36
4 39
4 42
4 43
4 47
4 48
4 49
4 52
4 58
5 6
5 17
5 19
5 22
5 26
5 28
5 29
5 30
5 32
5 34
5 39
5 43
5 45
5 50
5 52
5 57
5 58
6 7
6 11
6 12
6 14
6 17
6 23
6 26
6 27
6 34
6 35
6 37
6 38
6 39
6 40
6 41
6 44
6 45
6 46
6 48
6 54
7 9
7 10
7 14
7 17
7 19
7 22
7 29
7 32
7 33
7 34
7 42
7 43
7 48
7 49
7 51
7 59
8 11
8 14
8 15
8 16
8 17
8 18
8 23
8 25
8 28
8 29
8 37
8 38
8 39
8 42
8 43
8 45
8 47
8 48
8 52
8 53
8 54
8 57
9 10
9 11
9 12
9 22
9 24
9 30
9 31
9 32
9 37
9 38
9 44
9 46
9 57
10 11
10 15
10 18
10 20
10 21
10 22
10 25
10 27
10 30
10 32
10 49
10 51
10 52
10 55
10 58
11 17
11 22
11 25
11 27
11 28
11 29
11 32
11 33
11 38
11 44
11 48
11 49
11 50
11 52
11 54
11 55
12 17
12 19
12 21
12 23
12 25
12 29
12 32
12 37
12 42
12 44
12 46
12 48
12 51
12 53
12 56
12 58
13 15
13 17
13 24
13 25
13 28
13 30
13 32
13 36
13 43
13 47
13 56
13 59
14 16
14 18
14 22
14 25
14 26
14 28
14 30
14 31
14 35
14 40
14 43
14 49
14 54
15 18
15 21
15 27
15 28
15 30
15 32
15 36
15 39
15 41
15 42
15 43
15 45
15 51
15 53
15 58
16 20
16 21
16 25
16 28
16 40
16 46
16 48
16 52
16 53
16 55
16 56
16 57
16 59
17 19
17 22
17 24
17 28
17 29
17 30
17 31
17 33
17 34
17 36
17 40
17 44
17 47
17 49
17 53
17 55
18 25
18 26
18 27
18 33
18 35
18 41
18 42
18 45
18 49
18 52
18 58
18 59
19 25
19 26
19 29
19 30
19 33
19 35
19 36
19 37
19 56
20 23
20 25
20 30
20 31
20 34
20 42
20 48
20 49
20 50
20 53
21 25
21 26
21 29
21 30
21 32
21 34
21 51
21 52
21 53
21 54
21 58
22 23
22 28
22 30
22 31
22 34
22 43
22 45
22 47
22 52
23 26
23 27
23 29
23 31
23 34
23 37
23 38
23 43
23 45
23 48
23 49
23 52
24 29
24 30
24 31
24 35
24 36
24 39
24 40
24 41
24 44
24 45
24 54
24 57
24 59
25 26
25 28
25 29
25 32
25 41
25 49
25 51
25 52
26 27
26 31
26 32
26 34
26 35
26 36
26 48
26 50
27 28
27 45
27 48
27 50
27 52
27 55
27 57
27 59
28 33
28 40
28 42
28 43
28 45
28 49
28 52
28 58
29 30
29 33
29 41
29 46
29 56
30 35
30 38
30 50
30 56
30 57
30 58
31 33
31 45
31 54
32 33
32 38
32 40
32 42
32 49
32 54
32 57
32 58
33 34
33 39
33 41
33 46
33 47
33 49
33 55
33 57
33 58
34 35
34 36
34 37
34 38
34 43
34 45
34 54
34 55
34 58
35 37
35 40
35 46
35 47
35 48
35 49
35 51
35 52
35 57
36 38
36 39
36 46
36 47
36 49
37 38
37 39
37 41
37 43
37 44
37 46
37 49
37 55
38 41
38 43
38 51
38 52
38 57
38 58
38 59
39 44
39 45
39 46
39 50
39 55
40 43
40 45
40 48
40 54
40 56
40 58
41 42
41 45
41 48
41 54
41 57
41 58
42 50
42 53
43 44
43 48
43 49
43 50
43 55
43 56
44 45
44 50
44 53
45 47
45 55
46 48
46 49
46 50
46 53
46 56
47 48
47 57
48 49
48 54
48 55
48 58
49 50
49 55
49 58
50 59
51 52
51 55
51 56
51 57
52 53
52 54
52 56
52 57
53 54
53 55
54 56
54 59
55 58
45 39 5 10 55 42
26 43 1 25 31 33
46 40 12 41 35 51
7 8 17 21 53 44
34 29 38 14 50 24
57 4 18 2 22 59
13 37 23 47 11 6
54 28 19 52 32 48
56 3 49 0 27 9
30 15 58 16 36 20
